p cnf 130 473
2 -1 0
2 1 0
-5 -3 0
-5 -4 0
3 4 5 0
2 5 -6 0
-2 -5 -6 0
2 -5 6 0
-2 5 6 0
-7 8 -9 0
7 -8 -9 0
-7 -8 9 0
7 8 9 0
-2 10 -11 0
2 -10 -11 0
-2 -10 11 0
2 10 11 0
12 9 0
12 11 0
-9 -11 -12 0
-9 12 -13 0
9 -12 -13 0
-9 -12 13 0
9 12 13 0
-14 1 0
-14 13 0
-1 -13 14 0
15 -14 0
15 -10 0
14 10 -15 0
-17 -8 0
-17 10 0
8 -10 17 0
-18 -16 0
-18 -17 0
16 17 18 0
11 10 -19 0
-11 -10 -19 0
11 -10 19 0
-11 10 19 0
-20 18 0
-20 19 0
-18 -19 20 0
-22 -20 0
-22 -21 0
20 21 22 0
23 15 0
23 -22 0
-15 22 -23 0
-24 6 0
-24 -23 0
-6 23 24 0
-25 16 0
-25 9 0
-16 -9 25 0
25 -20 -26 0
-25 20 -26 0
25 20 26 0
-25 -20 26 0
27 24 0
27 26 0
-24 -26 -27 0
29 -4 0
29 28 0
4 -28 -29 0
-4 -30 0
4 -30 0
30 31 -32 0
-30 -31 -32 0
30 -31 32 0
-30 31 32 0
33 -29 0
33 -32 0
29 32 -33 0
-34 19 0
-34 15 0
-19 -15 34 0
-36 -12 0
-36 -35 0
12 35 36 0
-34 36 -37 0
34 -36 -37 0
-34 -36 37 0
34 36 37 0
35 -38 -39 0
-35 38 -39 0
35 38 39 0
-35 -38 39 0
-2 39 -40 0
2 -39 -40 0
-2 -39 40 0
2 39 40 0
41 40 0
41 -13 0
-40 13 -41 0
37 41 -42 0
-37 -41 -42 0
37 -41 42 0
-37 41 42 0
43 -33 0
43 -42 0
33 42 -43 0
-44 3 0
-44 -38 0
-3 38 44 0
43 44 -45 0
-43 -44 -45 0
43 -44 45 0
-43 44 45 0
-8 16 -46 0
8 -16 -46 0
-8 -16 46 0
8 16 46 0
-47 -46 0
-47 17 0
46 -17 47 0
-49 48 0
-49 9 0
-48 -9 49 0
50 31 0
50 -49 0
-31 49 -50 0
-51 -3 0
-51 50 0
3 -50 51 0
47 51 -52 0
-47 -51 -52 0
47 -51 52 0
-47 51 52 0
-45 52 -53 0
45 -52 -53 0
-45 -52 53 0
45 52 53 0
54 -5 0
54 19 0
5 -19 -54 0
55 54 0
55 15 0
-54 -15 -55 0
-18 -7 -56 0
18 7 -56 0
-18 7 56 0
18 -7 56 0
56 39 -57 0
-56 -39 -57 0
56 -39 57 0
-56 39 57 0
57 -13 -58 0
-57 13 -58 0
57 13 58 0
-57 -13 58 0
-59 -39 0
-59 21 0
39 -21 59 0
-60 -58 0
-60 59 0
58 -59 60 0
-16 -46 -61 0
16 46 -61 0
-16 46 61 0
16 -46 61 0
62 61 0
62 -7 0
-61 7 -62 0
47 -62 -63 0
-47 62 -63 0
47 62 63 0
-47 -62 63 0
-64 60 0
-64 63 0
-60 -63 64 0
-55 64 -65 0
55 -64 -65 0
-55 -64 65 0
55 64 65 0
66 -10 0
66 -18 0
10 18 -66 0
50 66 -67 0
-50 -66 -67 0
50 -66 67 0
-50 66 67 0
-68 -17 0
-68 -20 0
17 20 68 0
-38 -68 -69 0
38 68 -69 0
-38 68 69 0
38 -68 69 0
-70 35 0
-70 8 0
-35 -8 70 0
25 -70 -71 0
-25 70 -71 0
25 70 71 0
-25 -70 71 0
72 71 0
72 -71 0
69 -72 -73 0
-69 72 -73 0
69 72 73 0
-69 -72 73 0
74 -67 0
74 73 0
67 -73 -74 0
11 -49 -75 0
-11 49 -75 0
11 49 75 0
-11 -49 75 0
-76 40 0
-76 75 0
-40 -75 76 0
77 76 0
77 -22 0
-76 22 -77 0
-78 74 0
-78 -77 0
-74 77 78 0
-40 19 -79 0
40 -19 -79 0
-40 -19 79 0
40 19 79 0
80 -78 0
80 -79 0
78 79 -80 0
-81 -65 0
-81 80 0
65 -80 81 0
82 -3 0
82 12 0
3 -12 -82 0
38 82 -83 0
-38 -82 -83 0
38 -82 83 0
-38 82 83 0
-84 3 0
-84 -35 0
-3 35 84 0
-85 -9 0
-85 -11 0
9 11 85 0
84 85 -86 0
-84 -85 -86 0
84 -85 86 0
-84 85 86 0
87 -10 0
87 47 0
10 -47 -87 0
-88 10 0
-88 54 0
-10 -54 88 0
-90 88 0
-90 89 0
-88 -89 90 0
-91 87 0
-91 90 0
-87 -90 91 0
25 -8 -92 0
-25 8 -92 0
25 8 92 0
-25 -8 92 0
35 -16 -93 0
-35 16 -93 0
35 16 93 0
-35 -16 93 0
-94 -92 0
-94 -93 0
92 93 94 0
16 76 -95 0
-16 -76 -95 0
16 -76 95 0
-16 76 95 0
96 21 0
96 5 0
-21 -5 -96 0
97 95 0
97 -96 0
-95 96 -97 0
-97 1 -98 0
97 -1 -98 0
-97 -1 98 0
97 1 98 0
99 94 0
99 98 0
-94 -98 -99 0
-100 1 0
-100 38 0
-1 -38 100 0
101 99 0
101 100 0
-99 -100 -101 0
91 -101 -102 0
-91 101 -102 0
91 101 102 0
-91 -101 102 0
-103 25 0
-103 -97 0
-25 97 103 0
-12 -75 -104 0
12 75 -104 0
-12 75 104 0
12 -75 104 0
-104 50 -105 0
104 -50 -105 0
-104 -50 105 0
104 50 105 0
103 105 -106 0
-103 -105 -106 0
103 -105 106 0
-103 105 106 0
-107 102 0
-107 -106 0
-102 106 107 0
86 -107 -108 0
-86 107 -108 0
86 107 108 0
-86 -107 108 0
-109 -54 0
-109 -97 0
54 97 109 0
110 108 0
110 109 0
-108 -109 -110 0
111 83 0
111 -110 0
-83 110 -111 0
-112 25 0
-112 -70 0
-25 70 112 0
-1 112 -113 0
1 -112 -113 0
-1 -112 113 0
1 112 113 0
114 -32 0
114 47 0
32 -47 -114 0
115 -113 0
115 114 0
113 -114 -115 0
116 -40 0
116 -21 0
40 21 -116 0
-96 -116 -117 0
96 116 -117 0
-96 116 117 0
96 -116 117 0
-40 117 -118 0
40 -117 -118 0
-40 -117 118 0
40 117 118 0
115 -118 -119 0
-115 118 -119 0
115 118 119 0
-115 -118 119 0
31 62 -120 0
-31 -62 -120 0
31 -62 120 0
-31 62 120 0
-120 56 -121 0
120 -56 -121 0
-120 -56 121 0
120 56 121 0
-119 121 -122 0
119 -121 -122 0
-119 -121 122 0
119 121 122 0
-111 -122 -123 0
111 122 -123 0
-111 122 123 0
111 -122 123 0
81 123 -124 0
-81 -123 -124 0
81 -123 124 0
-81 123 124 0
125 53 0
125 124 0
-53 -124 -125 0
-126 -20 0
-126 -68 0
20 68 126 0
127 -9 0
127 96 0
9 -96 -127 0
126 -127 -128 0
-126 127 -128 0
126 127 128 0
-126 -127 128 0
-129 -125 0
-129 128 0
125 -128 129 0
130 27 0
130 129 0
-27 -129 -130 0
85 91 -113 70 -19 89 0
120 -114 -62 -53 96 -107 0
-62 -60 0
-96 -32 -24 17 0
94 42 0
117 78 -6 0
-122 -91 -35 0
-58 -124 13 0
-33 -72 0
80 41 14 0
-29 -83 62 0
-36 -65 83 -72 0
33 -17 85 -42 52 -113 0
-56 75 -125 86 59 52 0
-82 120 -125 32 8 -112 0
68 -79 66 110 33 0
-20 -41 17 -77 0
121 -18 -13 89 19 86 0
40 4 36 0
-90 -21 123 -75 -104 66 0
-22 -122 0
-96 -128 -53 -71 0
-32 97 18 123 0
83 40 -70 14 -48 -94 0
-96 -1 -16 -28 107 0
95 88 0
-4 31 47 -3 0
-113 -39 35 -10 0
-36 111 -118 -126 98 -102 0
-112 -57 21 -44 -110 -10 0
36 -124 106 0
84 -88 116 0
53 98 -23 -17 94 -38 0
-42 -74 -81 -52 121 0
-74 -5 0
-109 86 -65 71 -58 14 0
128 56 0
81 99 0
85 -81 91 0
-88 82 0
34 -70 -18 0
77 115 -46 0
22 -11 93 0
74 28 -87 -59 0
35 -2 110 90 127 -126 0
-121 -74 117 -90 0
-88 52 66 -71 0
-45 31 -61 -15 0
32 -14 72 -99 0
57 -47 21 -2 103 -66 0
4 -126 -3 -119 -65 46 0
8 34 115 98 -10 0
36 100 130 -16 0
-16 -59 73 61 -91 114 0
-87 -37 -8 -40 0
58 -120 -101 -73 18 -80 0
109 7 -88 -85 -90 0
90 -61 -113 63 109 -95 0
-51 111 -27 0
-70 48 -72 0
-113 -90 49 -122 54 0
126 -70 -3 94 59 -60 0
-117 85 -97 7 -40 -61 0
-105 -126 3 103 -1 113 0
107 -12 23 114 0
59 -36 129 33 58 0
-76 -96 -38 74 46 0
-91 16 -102 56 -8 -29 0
-5 112 4 -87 0
121 -116 9 126 122 0
1 -74 119 121 -90 0
-52 -73 0
126 -43 42 39 0
-48 74 50 71 0
-83 1 27 -99 24 0
-122 110 -106 -30 0
-112 62 50 75 93 0
112 96 28 0
-62 30 104 0
130 0
